NAME : ClusterId_1028 
COMMENT : (Gillet and Johnson) 
TYPE : CVRP 
DIMENSION : 19 
EDGE_WEIGHT_TYPE : EUC_2D 
CAPACITY : 500 
NODE_COORD_SECTION 
1028 7260 2643 
798 7459 1748 
328 7796 2339 
642 7913 2878 
388 7268 1902 
644 7628 2328 
591 7201 2021 
499 7358 2231 
415 7619 2910 
485 7026 2119 
63 6868 2029 
583 7128 2340 
729 6758 1933 
528 6771 2045 
720 7377 3047 
278 6814 2312 
269 7076 2833 
925 6991 3008 
313 6834 2876 
DEMAND_SECTION 
1028 751
798 54
328 46
642 29
388 29
644 32
591 52
499 33
415 40
485 49
63 45
583 54
729 30
528 45
720 53
278 43
269 46
925 25
313 32
DEPOT_SECTION 
1028
 -1
EOF